p cnf 532 896
55 56 1 85 86 0
55 56 1 85 -86 0
55 56 1 -85 86 0
55 56 1 -85 -86 0
-55 -56 1 87 88 0
-55 -56 1 87 -88 0
-55 -56 1 -87 88 0
-55 -56 1 -87 -88 0
55 -56 -1 89 90 0
55 -56 -1 89 -90 0
55 -56 -1 -89 90 0
55 -56 -1 -89 -90 0
-55 56 -1 91 92 0
-55 56 -1 91 -92 0
-55 56 -1 -91 92 0
-55 56 -1 -91 -92 0
1 57 2 93 94 0
1 57 2 93 -94 0
1 57 2 -93 94 0
1 57 2 -93 -94 0
-1 -57 2 95 96 0
-1 -57 2 95 -96 0
-1 -57 2 -95 96 0
-1 -57 2 -95 -96 0
1 -57 -2 97 98 0
1 -57 -2 97 -98 0
1 -57 -2 -97 98 0
1 -57 -2 -97 -98 0
-1 57 -2 99 100 0
-1 57 -2 99 -100 0
-1 57 -2 -99 100 0
-1 57 -2 -99 -100 0
2 58 3 101 102 0
2 58 3 101 -102 0
2 58 3 -101 102 0
2 58 3 -101 -102 0
-2 -58 3 103 104 0
-2 -58 3 103 -104 0
-2 -58 3 -103 104 0
-2 -58 3 -103 -104 0
2 -58 -3 105 106 0
2 -58 -3 105 -106 0
2 -58 -3 -105 106 0
2 -58 -3 -105 -106 0
-2 58 -3 107 108 0
-2 58 -3 107 -108 0
-2 58 -3 -107 108 0
-2 58 -3 -107 -108 0
3 59 4 109 110 0
3 59 4 109 -110 0
3 59 4 -109 110 0
3 59 4 -109 -110 0
-3 -59 4 111 112 0
-3 -59 4 111 -112 0
-3 -59 4 -111 112 0
-3 -59 4 -111 -112 0
3 -59 -4 113 114 0
3 -59 -4 113 -114 0
3 -59 -4 -113 114 0
3 -59 -4 -113 -114 0
-3 59 -4 115 116 0
-3 59 -4 115 -116 0
-3 59 -4 -115 116 0
-3 59 -4 -115 -116 0
4 60 5 117 118 0
4 60 5 117 -118 0
4 60 5 -117 118 0
4 60 5 -117 -118 0
-4 -60 5 119 120 0
-4 -60 5 119 -120 0
-4 -60 5 -119 120 0
-4 -60 5 -119 -120 0
4 -60 -5 121 122 0
4 -60 -5 121 -122 0
4 -60 -5 -121 122 0
4 -60 -5 -121 -122 0
-4 60 -5 123 124 0
-4 60 -5 123 -124 0
-4 60 -5 -123 124 0
-4 60 -5 -123 -124 0
5 61 6 125 126 0
5 61 6 125 -126 0
5 61 6 -125 126 0
5 61 6 -125 -126 0
-5 -61 6 127 128 0
-5 -61 6 127 -128 0
-5 -61 6 -127 128 0
-5 -61 6 -127 -128 0
5 -61 -6 129 130 0
5 -61 -6 129 -130 0
5 -61 -6 -129 130 0
5 -61 -6 -129 -130 0
-5 61 -6 131 132 0
-5 61 -6 131 -132 0
-5 61 -6 -131 132 0
-5 61 -6 -131 -132 0
6 62 7 133 134 0
6 62 7 133 -134 0
6 62 7 -133 134 0
6 62 7 -133 -134 0
-6 -62 7 135 136 0
-6 -62 7 135 -136 0
-6 -62 7 -135 136 0
-6 -62 7 -135 -136 0
6 -62 -7 137 138 0
6 -62 -7 137 -138 0
6 -62 -7 -137 138 0
6 -62 -7 -137 -138 0
-6 62 -7 139 140 0
-6 62 -7 139 -140 0
-6 62 -7 -139 140 0
-6 62 -7 -139 -140 0
7 63 8 141 142 0
7 63 8 141 -142 0
7 63 8 -141 142 0
7 63 8 -141 -142 0
-7 -63 8 143 144 0
-7 -63 8 143 -144 0
-7 -63 8 -143 144 0
-7 -63 8 -143 -144 0
7 -63 -8 145 146 0
7 -63 -8 145 -146 0
7 -63 -8 -145 146 0
7 -63 -8 -145 -146 0
-7 63 -8 147 148 0
-7 63 -8 147 -148 0
-7 63 -8 -147 148 0
-7 63 -8 -147 -148 0
8 64 9 149 150 0
8 64 9 149 -150 0
8 64 9 -149 150 0
8 64 9 -149 -150 0
-8 -64 9 151 152 0
-8 -64 9 151 -152 0
-8 -64 9 -151 152 0
-8 -64 9 -151 -152 0
8 -64 -9 153 154 0
8 -64 -9 153 -154 0
8 -64 -9 -153 154 0
8 -64 -9 -153 -154 0
-8 64 -9 155 156 0
-8 64 -9 155 -156 0
-8 64 -9 -155 156 0
-8 64 -9 -155 -156 0
9 65 10 157 158 0
9 65 10 157 -158 0
9 65 10 -157 158 0
9 65 10 -157 -158 0
-9 -65 10 159 160 0
-9 -65 10 159 -160 0
-9 -65 10 -159 160 0
-9 -65 10 -159 -160 0
9 -65 -10 161 162 0
9 -65 -10 161 -162 0
9 -65 -10 -161 162 0
9 -65 -10 -161 -162 0
-9 65 -10 163 164 0
-9 65 -10 163 -164 0
-9 65 -10 -163 164 0
-9 65 -10 -163 -164 0
10 66 11 165 166 0
10 66 11 165 -166 0
10 66 11 -165 166 0
10 66 11 -165 -166 0
-10 -66 11 167 168 0
-10 -66 11 167 -168 0
-10 -66 11 -167 168 0
-10 -66 11 -167 -168 0
10 -66 -11 169 170 0
10 -66 -11 169 -170 0
10 -66 -11 -169 170 0
10 -66 -11 -169 -170 0
-10 66 -11 171 172 0
-10 66 -11 171 -172 0
-10 66 -11 -171 172 0
-10 66 -11 -171 -172 0
11 67 12 173 174 0
11 67 12 173 -174 0
11 67 12 -173 174 0
11 67 12 -173 -174 0
-11 -67 12 175 176 0
-11 -67 12 175 -176 0
-11 -67 12 -175 176 0
-11 -67 12 -175 -176 0
11 -67 -12 177 178 0
11 -67 -12 177 -178 0
11 -67 -12 -177 178 0
11 -67 -12 -177 -178 0
-11 67 -12 179 180 0
-11 67 -12 179 -180 0
-11 67 -12 -179 180 0
-11 67 -12 -179 -180 0
12 68 13 181 182 0
12 68 13 181 -182 0
12 68 13 -181 182 0
12 68 13 -181 -182 0
-12 -68 13 183 184 0
-12 -68 13 183 -184 0
-12 -68 13 -183 184 0
-12 -68 13 -183 -184 0
12 -68 -13 185 186 0
12 -68 -13 185 -186 0
12 -68 -13 -185 186 0
12 -68 -13 -185 -186 0
-12 68 -13 187 188 0
-12 68 -13 187 -188 0
-12 68 -13 -187 188 0
-12 68 -13 -187 -188 0
13 69 14 189 190 0
13 69 14 189 -190 0
13 69 14 -189 190 0
13 69 14 -189 -190 0
-13 -69 14 191 192 0
-13 -69 14 191 -192 0
-13 -69 14 -191 192 0
-13 -69 14 -191 -192 0
13 -69 -14 193 194 0
13 -69 -14 193 -194 0
13 -69 -14 -193 194 0
13 -69 -14 -193 -194 0
-13 69 -14 195 196 0
-13 69 -14 195 -196 0
-13 69 -14 -195 196 0
-13 69 -14 -195 -196 0
14 70 15 197 198 0
14 70 15 197 -198 0
14 70 15 -197 198 0
14 70 15 -197 -198 0
-14 -70 15 199 200 0
-14 -70 15 199 -200 0
-14 -70 15 -199 200 0
-14 -70 15 -199 -200 0
14 -70 -15 201 202 0
14 -70 -15 201 -202 0
14 -70 -15 -201 202 0
14 -70 -15 -201 -202 0
-14 70 -15 203 204 0
-14 70 -15 203 -204 0
-14 70 -15 -203 204 0
-14 70 -15 -203 -204 0
15 71 16 205 206 0
15 71 16 205 -206 0
15 71 16 -205 206 0
15 71 16 -205 -206 0
-15 -71 16 207 208 0
-15 -71 16 207 -208 0
-15 -71 16 -207 208 0
-15 -71 16 -207 -208 0
15 -71 -16 209 210 0
15 -71 -16 209 -210 0
15 -71 -16 -209 210 0
15 -71 -16 -209 -210 0
-15 71 -16 211 212 0
-15 71 -16 211 -212 0
-15 71 -16 -211 212 0
-15 71 -16 -211 -212 0
16 72 17 213 214 0
16 72 17 213 -214 0
16 72 17 -213 214 0
16 72 17 -213 -214 0
-16 -72 17 215 216 0
-16 -72 17 215 -216 0
-16 -72 17 -215 216 0
-16 -72 17 -215 -216 0
16 -72 -17 217 218 0
16 -72 -17 217 -218 0
16 -72 -17 -217 218 0
16 -72 -17 -217 -218 0
-16 72 -17 219 220 0
-16 72 -17 219 -220 0
-16 72 -17 -219 220 0
-16 72 -17 -219 -220 0
17 73 18 221 222 0
17 73 18 221 -222 0
17 73 18 -221 222 0
17 73 18 -221 -222 0
-17 -73 18 223 224 0
-17 -73 18 223 -224 0
-17 -73 18 -223 224 0
-17 -73 18 -223 -224 0
17 -73 -18 225 226 0
17 -73 -18 225 -226 0
17 -73 -18 -225 226 0
17 -73 -18 -225 -226 0
-17 73 -18 227 228 0
-17 73 -18 227 -228 0
-17 73 -18 -227 228 0
-17 73 -18 -227 -228 0
18 74 19 229 230 0
18 74 19 229 -230 0
18 74 19 -229 230 0
18 74 19 -229 -230 0
-18 -74 19 231 232 0
-18 -74 19 231 -232 0
-18 -74 19 -231 232 0
-18 -74 19 -231 -232 0
18 -74 -19 233 234 0
18 -74 -19 233 -234 0
18 -74 -19 -233 234 0
18 -74 -19 -233 -234 0
-18 74 -19 235 236 0
-18 74 -19 235 -236 0
-18 74 -19 -235 236 0
-18 74 -19 -235 -236 0
19 75 20 237 238 0
19 75 20 237 -238 0
19 75 20 -237 238 0
19 75 20 -237 -238 0
-19 -75 20 239 240 0
-19 -75 20 239 -240 0
-19 -75 20 -239 240 0
-19 -75 20 -239 -240 0
19 -75 -20 241 242 0
19 -75 -20 241 -242 0
19 -75 -20 -241 242 0
19 -75 -20 -241 -242 0
-19 75 -20 243 244 0
-19 75 -20 243 -244 0
-19 75 -20 -243 244 0
-19 75 -20 -243 -244 0
20 76 21 245 246 0
20 76 21 245 -246 0
20 76 21 -245 246 0
20 76 21 -245 -246 0
-20 -76 21 247 248 0
-20 -76 21 247 -248 0
-20 -76 21 -247 248 0
-20 -76 21 -247 -248 0
20 -76 -21 249 250 0
20 -76 -21 249 -250 0
20 -76 -21 -249 250 0
20 -76 -21 -249 -250 0
-20 76 -21 251 252 0
-20 76 -21 251 -252 0
-20 76 -21 -251 252 0
-20 76 -21 -251 -252 0
21 77 22 253 254 0
21 77 22 253 -254 0
21 77 22 -253 254 0
21 77 22 -253 -254 0
-21 -77 22 255 256 0
-21 -77 22 255 -256 0
-21 -77 22 -255 256 0
-21 -77 22 -255 -256 0
21 -77 -22 257 258 0
21 -77 -22 257 -258 0
21 -77 -22 -257 258 0
21 -77 -22 -257 -258 0
-21 77 -22 259 260 0
-21 77 -22 259 -260 0
-21 77 -22 -259 260 0
-21 77 -22 -259 -260 0
22 78 23 261 262 0
22 78 23 261 -262 0
22 78 23 -261 262 0
22 78 23 -261 -262 0
-22 -78 23 263 264 0
-22 -78 23 263 -264 0
-22 -78 23 -263 264 0
-22 -78 23 -263 -264 0
22 -78 -23 265 266 0
22 -78 -23 265 -266 0
22 -78 -23 -265 266 0
22 -78 -23 -265 -266 0
-22 78 -23 267 268 0
-22 78 -23 267 -268 0
-22 78 -23 -267 268 0
-22 78 -23 -267 -268 0
23 79 24 269 270 0
23 79 24 269 -270 0
23 79 24 -269 270 0
23 79 24 -269 -270 0
-23 -79 24 271 272 0
-23 -79 24 271 -272 0
-23 -79 24 -271 272 0
-23 -79 24 -271 -272 0
23 -79 -24 273 274 0
23 -79 -24 273 -274 0
23 -79 -24 -273 274 0
23 -79 -24 -273 -274 0
-23 79 -24 275 276 0
-23 79 -24 275 -276 0
-23 79 -24 -275 276 0
-23 79 -24 -275 -276 0
24 80 25 277 278 0
24 80 25 277 -278 0
24 80 25 -277 278 0
24 80 25 -277 -278 0
-24 -80 25 279 280 0
-24 -80 25 279 -280 0
-24 -80 25 -279 280 0
-24 -80 25 -279 -280 0
24 -80 -25 281 282 0
24 -80 -25 281 -282 0
24 -80 -25 -281 282 0
24 -80 -25 -281 -282 0
-24 80 -25 283 284 0
-24 80 -25 283 -284 0
-24 80 -25 -283 284 0
-24 80 -25 -283 -284 0
25 81 26 285 286 0
25 81 26 285 -286 0
25 81 26 -285 286 0
25 81 26 -285 -286 0
-25 -81 26 287 288 0
-25 -81 26 287 -288 0
-25 -81 26 -287 288 0
-25 -81 26 -287 -288 0
25 -81 -26 289 290 0
25 -81 -26 289 -290 0
25 -81 -26 -289 290 0
25 -81 -26 -289 -290 0
-25 81 -26 291 292 0
-25 81 -26 291 -292 0
-25 81 -26 -291 292 0
-25 81 -26 -291 -292 0
26 82 27 293 294 0
26 82 27 293 -294 0
26 82 27 -293 294 0
26 82 27 -293 -294 0
-26 -82 27 295 296 0
-26 -82 27 295 -296 0
-26 -82 27 -295 296 0
-26 -82 27 -295 -296 0
26 -82 -27 297 298 0
26 -82 -27 297 -298 0
26 -82 -27 -297 298 0
26 -82 -27 -297 -298 0
-26 82 -27 299 300 0
-26 82 -27 299 -300 0
-26 82 -27 -299 300 0
-26 82 -27 -299 -300 0
27 83 84 301 302 0
27 83 84 301 -302 0
27 83 84 -301 302 0
27 83 84 -301 -302 0
-27 -83 84 303 304 0
-27 -83 84 303 -304 0
-27 -83 84 -303 304 0
-27 -83 84 -303 -304 0
27 -83 -84 305 306 0
27 -83 -84 305 -306 0
27 -83 -84 -305 306 0
27 -83 -84 -305 -306 0
-27 83 -84 307 308 0
-27 83 -84 307 -308 0
-27 83 -84 -307 308 0
-27 83 -84 -307 -308 0
28 83 84 309 310 0
28 83 84 309 -310 0
28 83 84 -309 310 0
28 83 84 -309 -310 0
-28 -83 84 311 312 0
-28 -83 84 311 -312 0
-28 -83 84 -311 312 0
-28 -83 84 -311 -312 0
28 -83 -84 313 314 0
28 -83 -84 313 -314 0
28 -83 -84 -313 314 0
28 -83 -84 -313 -314 0
-28 83 -84 315 316 0
-28 83 -84 315 -316 0
-28 83 -84 -315 316 0
-28 83 -84 -315 -316 0
29 82 28 317 318 0
29 82 28 317 -318 0
29 82 28 -317 318 0
29 82 28 -317 -318 0
-29 -82 28 319 320 0
-29 -82 28 319 -320 0
-29 -82 28 -319 320 0
-29 -82 28 -319 -320 0
29 -82 -28 321 322 0
29 -82 -28 321 -322 0
29 -82 -28 -321 322 0
29 -82 -28 -321 -322 0
-29 82 -28 323 324 0
-29 82 -28 323 -324 0
-29 82 -28 -323 324 0
-29 82 -28 -323 -324 0
30 81 29 325 326 0
30 81 29 325 -326 0
30 81 29 -325 326 0
30 81 29 -325 -326 0
-30 -81 29 327 328 0
-30 -81 29 327 -328 0
-30 -81 29 -327 328 0
-30 -81 29 -327 -328 0
30 -81 -29 329 330 0
30 -81 -29 329 -330 0
30 -81 -29 -329 330 0
30 -81 -29 -329 -330 0
-30 81 -29 331 332 0
-30 81 -29 331 -332 0
-30 81 -29 -331 332 0
-30 81 -29 -331 -332 0
31 80 30 333 334 0
31 80 30 333 -334 0
31 80 30 -333 334 0
31 80 30 -333 -334 0
-31 -80 30 335 336 0
-31 -80 30 335 -336 0
-31 -80 30 -335 336 0
-31 -80 30 -335 -336 0
31 -80 -30 337 338 0
31 -80 -30 337 -338 0
31 -80 -30 -337 338 0
31 -80 -30 -337 -338 0
-31 80 -30 339 340 0
-31 80 -30 339 -340 0
-31 80 -30 -339 340 0
-31 80 -30 -339 -340 0
32 79 31 341 342 0
32 79 31 341 -342 0
32 79 31 -341 342 0
32 79 31 -341 -342 0
-32 -79 31 343 344 0
-32 -79 31 343 -344 0
-32 -79 31 -343 344 0
-32 -79 31 -343 -344 0
32 -79 -31 345 346 0
32 -79 -31 345 -346 0
32 -79 -31 -345 346 0
32 -79 -31 -345 -346 0
-32 79 -31 347 348 0
-32 79 -31 347 -348 0
-32 79 -31 -347 348 0
-32 79 -31 -347 -348 0
33 78 32 349 350 0
33 78 32 349 -350 0
33 78 32 -349 350 0
33 78 32 -349 -350 0
-33 -78 32 351 352 0
-33 -78 32 351 -352 0
-33 -78 32 -351 352 0
-33 -78 32 -351 -352 0
33 -78 -32 353 354 0
33 -78 -32 353 -354 0
33 -78 -32 -353 354 0
33 -78 -32 -353 -354 0
-33 78 -32 355 356 0
-33 78 -32 355 -356 0
-33 78 -32 -355 356 0
-33 78 -32 -355 -356 0
34 77 33 357 358 0
34 77 33 357 -358 0
34 77 33 -357 358 0
34 77 33 -357 -358 0
-34 -77 33 359 360 0
-34 -77 33 359 -360 0
-34 -77 33 -359 360 0
-34 -77 33 -359 -360 0
34 -77 -33 361 362 0
34 -77 -33 361 -362 0
34 -77 -33 -361 362 0
34 -77 -33 -361 -362 0
-34 77 -33 363 364 0
-34 77 -33 363 -364 0
-34 77 -33 -363 364 0
-34 77 -33 -363 -364 0
35 76 34 365 366 0
35 76 34 365 -366 0
35 76 34 -365 366 0
35 76 34 -365 -366 0
-35 -76 34 367 368 0
-35 -76 34 367 -368 0
-35 -76 34 -367 368 0
-35 -76 34 -367 -368 0
35 -76 -34 369 370 0
35 -76 -34 369 -370 0
35 -76 -34 -369 370 0
35 -76 -34 -369 -370 0
-35 76 -34 371 372 0
-35 76 -34 371 -372 0
-35 76 -34 -371 372 0
-35 76 -34 -371 -372 0
36 75 35 373 374 0
36 75 35 373 -374 0
36 75 35 -373 374 0
36 75 35 -373 -374 0
-36 -75 35 375 376 0
-36 -75 35 375 -376 0
-36 -75 35 -375 376 0
-36 -75 35 -375 -376 0
36 -75 -35 377 378 0
36 -75 -35 377 -378 0
36 -75 -35 -377 378 0
36 -75 -35 -377 -378 0
-36 75 -35 379 380 0
-36 75 -35 379 -380 0
-36 75 -35 -379 380 0
-36 75 -35 -379 -380 0
37 74 36 381 382 0
37 74 36 381 -382 0
37 74 36 -381 382 0
37 74 36 -381 -382 0
-37 -74 36 383 384 0
-37 -74 36 383 -384 0
-37 -74 36 -383 384 0
-37 -74 36 -383 -384 0
37 -74 -36 385 386 0
37 -74 -36 385 -386 0
37 -74 -36 -385 386 0
37 -74 -36 -385 -386 0
-37 74 -36 387 388 0
-37 74 -36 387 -388 0
-37 74 -36 -387 388 0
-37 74 -36 -387 -388 0
38 73 37 389 390 0
38 73 37 389 -390 0
38 73 37 -389 390 0
38 73 37 -389 -390 0
-38 -73 37 391 392 0
-38 -73 37 391 -392 0
-38 -73 37 -391 392 0
-38 -73 37 -391 -392 0
38 -73 -37 393 394 0
38 -73 -37 393 -394 0
38 -73 -37 -393 394 0
38 -73 -37 -393 -394 0
-38 73 -37 395 396 0
-38 73 -37 395 -396 0
-38 73 -37 -395 396 0
-38 73 -37 -395 -396 0
39 72 38 397 398 0
39 72 38 397 -398 0
39 72 38 -397 398 0
39 72 38 -397 -398 0
-39 -72 38 399 400 0
-39 -72 38 399 -400 0
-39 -72 38 -399 400 0
-39 -72 38 -399 -400 0
39 -72 -38 401 402 0
39 -72 -38 401 -402 0
39 -72 -38 -401 402 0
39 -72 -38 -401 -402 0
-39 72 -38 403 404 0
-39 72 -38 403 -404 0
-39 72 -38 -403 404 0
-39 72 -38 -403 -404 0
40 71 39 405 406 0
40 71 39 405 -406 0
40 71 39 -405 406 0
40 71 39 -405 -406 0
-40 -71 39 407 408 0
-40 -71 39 407 -408 0
-40 -71 39 -407 408 0
-40 -71 39 -407 -408 0
40 -71 -39 409 410 0
40 -71 -39 409 -410 0
40 -71 -39 -409 410 0
40 -71 -39 -409 -410 0
-40 71 -39 411 412 0
-40 71 -39 411 -412 0
-40 71 -39 -411 412 0
-40 71 -39 -411 -412 0
41 70 40 413 414 0
41 70 40 413 -414 0
41 70 40 -413 414 0
41 70 40 -413 -414 0
-41 -70 40 415 416 0
-41 -70 40 415 -416 0
-41 -70 40 -415 416 0
-41 -70 40 -415 -416 0
41 -70 -40 417 418 0
41 -70 -40 417 -418 0
41 -70 -40 -417 418 0
41 -70 -40 -417 -418 0
-41 70 -40 419 420 0
-41 70 -40 419 -420 0
-41 70 -40 -419 420 0
-41 70 -40 -419 -420 0
42 69 41 421 422 0
42 69 41 421 -422 0
42 69 41 -421 422 0
42 69 41 -421 -422 0
-42 -69 41 423 424 0
-42 -69 41 423 -424 0
-42 -69 41 -423 424 0
-42 -69 41 -423 -424 0
42 -69 -41 425 426 0
42 -69 -41 425 -426 0
42 -69 -41 -425 426 0
42 -69 -41 -425 -426 0
-42 69 -41 427 428 0
-42 69 -41 427 -428 0
-42 69 -41 -427 428 0
-42 69 -41 -427 -428 0
43 68 42 429 430 0
43 68 42 429 -430 0
43 68 42 -429 430 0
43 68 42 -429 -430 0
-43 -68 42 431 432 0
-43 -68 42 431 -432 0
-43 -68 42 -431 432 0
-43 -68 42 -431 -432 0
43 -68 -42 433 434 0
43 -68 -42 433 -434 0
43 -68 -42 -433 434 0
43 -68 -42 -433 -434 0
-43 68 -42 435 436 0
-43 68 -42 435 -436 0
-43 68 -42 -435 436 0
-43 68 -42 -435 -436 0
44 67 43 437 438 0
44 67 43 437 -438 0
44 67 43 -437 438 0
44 67 43 -437 -438 0
-44 -67 43 439 440 0
-44 -67 43 439 -440 0
-44 -67 43 -439 440 0
-44 -67 43 -439 -440 0
44 -67 -43 441 442 0
44 -67 -43 441 -442 0
44 -67 -43 -441 442 0
44 -67 -43 -441 -442 0
-44 67 -43 443 444 0
-44 67 -43 443 -444 0
-44 67 -43 -443 444 0
-44 67 -43 -443 -444 0
45 66 44 445 446 0
45 66 44 445 -446 0
45 66 44 -445 446 0
45 66 44 -445 -446 0
-45 -66 44 447 448 0
-45 -66 44 447 -448 0
-45 -66 44 -447 448 0
-45 -66 44 -447 -448 0
45 -66 -44 449 450 0
45 -66 -44 449 -450 0
45 -66 -44 -449 450 0
45 -66 -44 -449 -450 0
-45 66 -44 451 452 0
-45 66 -44 451 -452 0
-45 66 -44 -451 452 0
-45 66 -44 -451 -452 0
46 65 45 453 454 0
46 65 45 453 -454 0
46 65 45 -453 454 0
46 65 45 -453 -454 0
-46 -65 45 455 456 0
-46 -65 45 455 -456 0
-46 -65 45 -455 456 0
-46 -65 45 -455 -456 0
46 -65 -45 457 458 0
46 -65 -45 457 -458 0
46 -65 -45 -457 458 0
46 -65 -45 -457 -458 0
-46 65 -45 459 460 0
-46 65 -45 459 -460 0
-46 65 -45 -459 460 0
-46 65 -45 -459 -460 0
47 64 46 461 462 0
47 64 46 461 -462 0
47 64 46 -461 462 0
47 64 46 -461 -462 0
-47 -64 46 463 464 0
-47 -64 46 463 -464 0
-47 -64 46 -463 464 0
-47 -64 46 -463 -464 0
47 -64 -46 465 466 0
47 -64 -46 465 -466 0
47 -64 -46 -465 466 0
47 -64 -46 -465 -466 0
-47 64 -46 467 468 0
-47 64 -46 467 -468 0
-47 64 -46 -467 468 0
-47 64 -46 -467 -468 0
48 63 47 469 470 0
48 63 47 469 -470 0
48 63 47 -469 470 0
48 63 47 -469 -470 0
-48 -63 47 471 472 0
-48 -63 47 471 -472 0
-48 -63 47 -471 472 0
-48 -63 47 -471 -472 0
48 -63 -47 473 474 0
48 -63 -47 473 -474 0
48 -63 -47 -473 474 0
48 -63 -47 -473 -474 0
-48 63 -47 475 476 0
-48 63 -47 475 -476 0
-48 63 -47 -475 476 0
-48 63 -47 -475 -476 0
49 62 48 477 478 0
49 62 48 477 -478 0
49 62 48 -477 478 0
49 62 48 -477 -478 0
-49 -62 48 479 480 0
-49 -62 48 479 -480 0
-49 -62 48 -479 480 0
-49 -62 48 -479 -480 0
49 -62 -48 481 482 0
49 -62 -48 481 -482 0
49 -62 -48 -481 482 0
49 -62 -48 -481 -482 0
-49 62 -48 483 484 0
-49 62 -48 483 -484 0
-49 62 -48 -483 484 0
-49 62 -48 -483 -484 0
50 61 49 485 486 0
50 61 49 485 -486 0
50 61 49 -485 486 0
50 61 49 -485 -486 0
-50 -61 49 487 488 0
-50 -61 49 487 -488 0
-50 -61 49 -487 488 0
-50 -61 49 -487 -488 0
50 -61 -49 489 490 0
50 -61 -49 489 -490 0
50 -61 -49 -489 490 0
50 -61 -49 -489 -490 0
-50 61 -49 491 492 0
-50 61 -49 491 -492 0
-50 61 -49 -491 492 0
-50 61 -49 -491 -492 0
51 60 50 493 494 0
51 60 50 493 -494 0
51 60 50 -493 494 0
51 60 50 -493 -494 0
-51 -60 50 495 496 0
-51 -60 50 495 -496 0
-51 -60 50 -495 496 0
-51 -60 50 -495 -496 0
51 -60 -50 497 498 0
51 -60 -50 497 -498 0
51 -60 -50 -497 498 0
51 -60 -50 -497 -498 0
-51 60 -50 499 500 0
-51 60 -50 499 -500 0
-51 60 -50 -499 500 0
-51 60 -50 -499 -500 0
52 59 51 501 502 0
52 59 51 501 -502 0
52 59 51 -501 502 0
52 59 51 -501 -502 0
-52 -59 51 503 504 0
-52 -59 51 503 -504 0
-52 -59 51 -503 504 0
-52 -59 51 -503 -504 0
52 -59 -51 505 506 0
52 -59 -51 505 -506 0
52 -59 -51 -505 506 0
52 -59 -51 -505 -506 0
-52 59 -51 507 508 0
-52 59 -51 507 -508 0
-52 59 -51 -507 508 0
-52 59 -51 -507 -508 0
53 58 52 509 510 0
53 58 52 509 -510 0
53 58 52 -509 510 0
53 58 52 -509 -510 0
-53 -58 52 511 512 0
-53 -58 52 511 -512 0
-53 -58 52 -511 512 0
-53 -58 52 -511 -512 0
53 -58 -52 513 514 0
53 -58 -52 513 -514 0
53 -58 -52 -513 514 0
53 -58 -52 -513 -514 0
-53 58 -52 515 516 0
-53 58 -52 515 -516 0
-53 58 -52 -515 516 0
-53 58 -52 -515 -516 0
54 57 53 517 518 0
54 57 53 517 -518 0
54 57 53 -517 518 0
54 57 53 -517 -518 0
-54 -57 53 519 520 0
-54 -57 53 519 -520 0
-54 -57 53 -519 520 0
-54 -57 53 -519 -520 0
54 -57 -53 521 522 0
54 -57 -53 521 -522 0
54 -57 -53 -521 522 0
54 -57 -53 -521 -522 0
-54 57 -53 523 524 0
-54 57 -53 523 -524 0
-54 57 -53 -523 524 0
-54 57 -53 -523 -524 0
55 56 -54 525 526 0
55 56 -54 525 -526 0
55 56 -54 -525 526 0
55 56 -54 -525 -526 0
-55 -56 -54 527 528 0
-55 -56 -54 527 -528 0
-55 -56 -54 -527 528 0
-55 -56 -54 -527 -528 0
55 -56 54 529 530 0
55 -56 54 529 -530 0
55 -56 54 -529 530 0
55 -56 54 -529 -530 0
-55 56 54 531 532 0
-55 56 54 531 -532 0
-55 56 54 -531 532 0
-55 56 54 -531 -532 0
